9,0.42,0.43,0.72,0.72,259,103,100
28,0.42,0.43,0.23,0.62,24555,15131,83450
29,0.42,0.43,0.54,0.62,5460,3306,4616
30,0.42,0.43,0.17,0.60,3316,2222,15947
29,0.42,0.43,0.54,0.62,5459,3299,4617
30,0.42,0.43,0.17,0.60,3316,2222,15947
34,0.42,0.43,0.18,0.72,5342,2034,23851
35,0.42,0.43,0.41,0.67,3130,1533,4541
36,0.42,0.43,0.47,0.69,4187,1859,4643
37,0.42,0.43,0.34,0.63,5681,3269,11248
